n_agents = 30;
start = [184,109,306,367,257,129,151,22,149,236,36,214,398,390,142,393,135,326,220,223,195,294,260,230,123,341,105,287,115,370];
goal = [182,154,358,365,248,117,94,14,102,193,55,164,311,356,187,324,163,269,223,305,168,171,259,215,96,266,118,391,115,368];